659332
1,36,7,210,183,20,117,22,26,144,145,211,156,5,44,64,30,15,137,138,3,60,16,189,185,208,159,23,69,226,177,51,98,42,160,113,73,209,218,206,136,181,188,124,173,131,148,61,182,80,25,123,85,167,79,95,84,193,195,119,86,70,126,122,152,191,114,29,57,76,174,164,154,65,200,198,10,201,110,14,165,120,8,97,194,13,220,176,223,17,47,225,48,111,134,19,227,125,46,214,197,143,11,139,58,45,212,104,230,204,172,168,93,213,59,221,52,132,149,115,2,82,158,77,222,41,128,106,141,219,24,66,190,99,216,100,53,92,18,56,54,175,105,202,121,180,103,187,12,146,88,228,109,90,186,171,150,170,142,4,21,217,153,129,33,224,38,203,6,68,9,91,96,166,101,184,116,161,107,89,196,179,192,37,34,205,75,215,78,28,151,50,108,94,35,87,62,102,55,130,81,40,169,27,112,155,133,229,162,135,83,157,74,39,207,43,31,199,178,163,127,147,67,49,118,71,140,32,63,72,1